34
all-trans hexadecaoctaene, idealized geometry
C      0.000000     0.000000     0.000000
C      1.340000     0.000000     0.000000
C      2.070000    -1.264397     0.000000
C      3.410000    -1.264397     0.000000
C      4.140000    -2.528794     0.000000
C      5.480000    -2.528794     0.000000
C      6.210000    -3.793191     0.000000
C      7.550000    -3.793191     0.000000
C      8.280000    -5.057588     0.000000
C      9.620000    -5.057588     0.000000
C     10.350000    -6.321985     0.000000
C     11.690000    -6.321985     0.000000
C     12.420000    -7.586383     0.000000
C     13.760000    -7.586383     0.000000
C     14.490000    -8.850780     0.000000
C     15.830000    -8.850780     0.000000
H     -0.540000    -0.935307     0.000000
H     -0.540000     0.935307     0.000000
H      1.880000     0.935307     0.000000
H      1.530000    -2.199705     0.000000
H      3.950000    -0.329090     0.000000
H      3.600000    -3.464102     0.000000
H      6.020000    -1.593487     0.000000
H      5.670000    -4.728499     0.000000
H      8.090000    -2.857884     0.000000
H      7.740000    -5.992896     0.000000
H     10.160000    -4.122281     0.000000
H      9.810000    -7.257293     0.000000
H     12.230000    -5.386678     0.000000
H     11.880000    -8.521690     0.000000
H     14.300000    -6.651075     0.000000
H     13.950000    -9.786087     0.000000
H     16.370000    -7.915472     0.000000
H     16.370000    -9.786087     0.000000
