18
all-trans octatetraene, idealized geometry
C      0.000000     0.000000     0.000000
C      1.340000     0.000000     0.000000
C      2.070000    -1.264397     0.000000
C      3.410000    -1.264397     0.000000
C      4.140000    -2.528794     0.000000
C      5.480000    -2.528794     0.000000
C      6.210000    -3.793191     0.000000
C      7.550000    -3.793191     0.000000
H     -0.540000    -0.935307     0.000000
H     -0.540000     0.935307     0.000000
H      1.880000     0.935307     0.000000
H      1.530000    -2.199705     0.000000
H      3.950000    -0.329090     0.000000
H      3.600000    -3.464102     0.000000
H      6.020000    -1.593487     0.000000
H      5.670000    -4.728499     0.000000
H      8.090000    -2.857884     0.000000
H      8.090000    -4.728499     0.000000
